c nombre: 43
c densidad: 0.5
p edges 40 416
e 1 3
e 1 4
e 1 6
e 1 9
e 1 10
e 1 13
e 1 14
e 1 15
e 1 16
e 1 17
e 1 18
e 1 19
e 1 21
e 1 22
e 1 23
e 1 26
e 1 27
e 1 28
e 1 33
e 1 34
e 1 37
e 1 38
e 2 5
e 2 6
e 2 9
e 2 10
e 2 12
e 2 13
e 2 14
e 2 16
e 2 22
e 2 23
e 2 24
e 2 27
e 2 31
e 2 32
e 2 33
e 2 35
e 2 36
e 2 37
e 3 6
e 3 7
e 3 10
e 3 12
e 3 14
e 3 16
e 3 18
e 3 22
e 3 23
e 3 24
e 3 34
e 3 36
e 3 37
e 3 39
e 3 40
e 4 7
e 4 9
e 4 10
e 4 12
e 4 16
e 4 17
e 4 18
e 4 22
e 4 23
e 4 25
e 4 26
e 4 27
e 4 35
e 4 39
e 5 6
e 5 7
e 5 11
e 5 12
e 5 13
e 5 15
e 5 17
e 5 18
e 5 19
e 5 20
e 5 22
e 5 24
e 5 26
e 5 27
e 5 29
e 5 30
e 5 34
e 5 35
e 5 37
e 5 38
e 5 39
e 5 40
e 6 7
e 6 9
e 6 10
e 6 11
e 6 12
e 6 13
e 6 16
e 6 17
e 6 18
e 6 23
e 6 24
e 6 25
e 6 26
e 6 27
e 6 28
e 6 29
e 6 30
e 6 32
e 6 34
e 6 36
e 6 37
e 6 39
e 7 8
e 7 9
e 7 10
e 7 12
e 7 15
e 7 16
e 7 18
e 7 20
e 7 21
e 7 25
e 7 28
e 7 29
e 7 31
e 7 32
e 7 33
e 7 34
e 7 35
e 7 36
e 7 37
e 7 38
e 7 39
e 8 9
e 8 11
e 8 15
e 8 18
e 8 20
e 8 21
e 8 22
e 8 24
e 8 25
e 8 26
e 8 28
e 8 31
e 8 32
e 8 35
e 8 36
e 8 37
e 8 39
e 8 40
e 9 11
e 9 12
e 9 15
e 9 16
e 9 18
e 9 19
e 9 21
e 9 23
e 9 27
e 9 28
e 9 30
e 9 33
e 9 35
e 9 36
e 9 38
e 10 17
e 10 18
e 10 19
e 10 20
e 10 21
e 10 23
e 10 26
e 10 27
e 10 28
e 10 29
e 10 30
e 10 31
e 10 33
e 10 34
e 10 35
e 10 36
e 10 39
e 11 13
e 11 14
e 11 15
e 11 17
e 11 18
e 11 20
e 11 22
e 11 24
e 11 31
e 11 32
e 11 33
e 11 35
e 11 37
e 11 38
e 11 40
e 12 14
e 12 15
e 12 16
e 12 17
e 12 18
e 12 19
e 12 20
e 12 22
e 12 24
e 12 25
e 12 28
e 12 29
e 12 32
e 12 35
e 12 40
e 13 14
e 13 15
e 13 18
e 13 20
e 13 23
e 13 24
e 13 26
e 13 27
e 13 28
e 13 33
e 13 34
e 13 35
e 13 36
e 13 37
e 13 38
e 13 40
e 14 16
e 14 18
e 14 19
e 14 22
e 14 23
e 14 24
e 14 25
e 14 27
e 14 28
e 14 29
e 14 32
e 14 34
e 14 35
e 14 36
e 14 38
e 14 40
e 15 17
e 15 18
e 15 20
e 15 21
e 15 24
e 15 25
e 15 29
e 15 34
e 15 35
e 15 37
e 15 39
e 15 40
e 16 20
e 16 23
e 16 25
e 16 28
e 16 31
e 16 32
e 16 34
e 16 37
e 17 18
e 17 20
e 17 21
e 17 22
e 17 24
e 17 25
e 17 26
e 17 27
e 17 29
e 17 30
e 17 33
e 17 34
e 17 36
e 17 37
e 17 40
e 18 20
e 18 22
e 18 23
e 18 24
e 18 26
e 18 27
e 18 29
e 18 31
e 18 32
e 18 36
e 18 37
e 18 39
e 19 21
e 19 22
e 19 25
e 19 26
e 19 31
e 19 32
e 19 35
e 19 37
e 19 38
e 19 39
e 20 21
e 20 22
e 20 24
e 20 25
e 20 27
e 20 28
e 20 30
e 20 32
e 20 33
e 20 34
e 21 22
e 21 23
e 21 29
e 21 30
e 21 32
e 21 33
e 21 34
e 22 27
e 22 30
e 22 32
e 22 34
e 22 35
e 22 37
e 22 38
e 22 40
e 23 24
e 23 25
e 23 26
e 23 27
e 23 28
e 23 31
e 23 32
e 23 33
e 23 37
e 23 39
e 23 40
e 24 25
e 24 26
e 24 31
e 24 32
e 24 33
e 24 34
e 24 35
e 24 36
e 24 37
e 24 38
e 24 39
e 24 40
e 25 27
e 25 29
e 25 32
e 25 33
e 25 35
e 25 36
e 25 37
e 25 38
e 25 40
e 26 27
e 26 33
e 26 34
e 26 36
e 26 37
e 26 38
e 26 39
e 27 30
e 27 32
e 27 33
e 27 35
e 27 37
e 27 39
e 27 40
e 28 30
e 28 32
e 28 36
e 28 40
e 29 30
e 29 31
e 29 33
e 29 35
e 29 37
e 30 31
e 30 36
e 30 37
e 30 38
e 30 39
e 30 40
e 31 32
e 31 33
e 31 35
e 31 36
e 31 37
e 31 38
e 32 33
e 32 35
e 32 37
e 32 39
e 33 34
e 33 38
e 33 40
e 34 36
e 34 37
e 34 38
e 35 36
e 35 37
e 35 40
e 36 38
e 36 39
e 36 40
e 37 38
e 37 40
e 38 39
e 38 40
e 39 40
